38
24
0 24 30 33 35
1 25 26 27 30 32 35
2 24 25 28 32 33 34 35
3 24 25 27 28 30 31 32 33
4 24 25 29 30 32 35
5 24 27 30 32 35
6 24 25 27
7 25 28 30 34 35 36
8 24 25 28 30 31 33 35
9 24 25 31 32 33 35 36
10 24 25 26 27 30 32
11 27 30 32 33 36
12 24 30 32
13 25 26 28 30 31 33 35
14 24 31 32 33
15 25 32 35 36
16 27 30 32 35
17 24 26 27 31 32 33 36 37
18 26 31 36
19 27 28 33 37
20 28 31
21
22 34
23
